n_res = 4;
rc = [ 12, 14, 12, 10 ];
n_tasks = 30;
d = [ 8, 3, 6, 9, 8, 6, 4, 5, 4, 5, 7, 1, 10, 1, 5, 4, 10, 3, 5, 10, 1, 1, 3, 10, 1, 1, 7, 8, 9, 2 ];
rr = [| 10, 0, 0, 0, 0, 0, 0, 0, 0, 8, 10, 1, 0, 0, 0, 0, 0, 0, 0, 0, 0, 0, 3, 0, 0, 0, 0, 0, 0, 0
      | 0, 4, 5, 4, 0, 0, 0, 8, 0, 0, 0, 0, 8, 0, 0, 0, 0, 0, 0, 2, 0, 2, 0, 8, 0, 1, 0, 10, 0, 6
      | 0, 0, 0, 0, 6, 0, 0, 0, 0, 0, 0, 0, 0, 4, 0, 0, 10, 3, 5, 0, 5, 0, 0, 0, 0, 0, 5, 0, 7, 0
      | 0, 0, 0, 0, 0, 8, 5, 0, 1, 0, 0, 0, 0, 0, 3, 9, 0, 0, 0, 0, 0, 0, 0, 0, 3, 0, 0, 0, 0, 0 |];
suc = [ { 2 }, 
        { 3 }, 
        { 4 }, 
        { 5 }, 
        { 6 }, 
        { 7 }, 
        { 8 }, 
        { 9 }, 
        { 10 }, 
        { 11 }, 
        { 12 }, 
        { 13 }, 
        { 14 }, 
        { 15 }, 
        { 16 }, 
        { 17 }, 
        { 18 }, 
        { 19 }, 
        { 20 }, 
        { 21 }, 
        { 22 }, 
        { 23 }, 
        { 24 }, 
        { 25 }, 
        { 26 }, 
        { 27 }, 
        { 28 }, 
        { 29 }, 
        { 30 }, 
        {  }]; 
